(declare-sort A 0)
(declare-fun f (A) A)
(declare-const b A)
(declare-const a A)
(declare-fun g (A) A)
(assert (or (= (g (g b)) a) (= (g (f a)) a)))
(assert (= (g b) a))
(assert (= (f a) a))
(assert (or (not (= (f b) (f b))) (not (= (g a) a))))